\ Model example
\ LP format - for model browsing. Use MPS format to capture full model detail.
Minimize
  - 1e+06 y_state0_action0 - 1e+06 y_state0_action1 - 1e+06 y_state1_action1
   - 1e+06 y_state2_action0 - 1e+06 y_state2_action1
   - 1e+06 y_state3_action1 - 1e+06 y_state4_action0
   - 1e+06 y_state5_action0 - 1e+06 y_state6_action0
   - 1e+06 y_state7_action0 - 1e+06 y_state8_action1
   - 1e+06 y_state9_action0 - 1e+06 y_state10_action0
   - 1e+06 y_state11_action0 - 1e+06 y_state12_action0
   - 1e+06 y_state13_action2 - 1e+06 y_state14_action2
   - 1e+06 y_state14_action1 - 1e+06 y_state15_action0
   - 1e+06 y_state16_action0 - 1e+06 y_state17_action3
   - 1e+06 y_state18_action2 - 1e+06 y_state19_action2
   - 1e+06 y_state20_action2 - 1e+06 y_state21_action2
   - x_reward0_state0_lower + x_reward0_state0_upper
   - x_reward1_state0_lower + x_reward1_state0_upper
   - x_reward2_state0_lower + x_reward2_state0_upper + 2.5e+07 Constant
Subject To
 R0: y_state0_action0 + y_state0_action1 <= 1e+06
 R1: 1e+06 y_state0_action0 + 1e+06 y_state0_action1 >= 1
 R2: 1e+06 y_state0_action1 - y_state1_action1 >= 0
 R3: y_state0_action1 - 1e+06 y_state1_action1 <= 0
 R4: 1e+06 y_state1_action1 - y_state2_action0 - y_state2_action1 >= 0
 R5: y_state1_action1 - 1e+06 y_state2_action0 - 1e+06 y_state2_action1
   <= 0
 R6: 1e+06 y_state2_action1 - y_state3_action1 >= 0
 R7: y_state2_action1 - 1e+06 y_state3_action1 <= 0
 R8: 1e+06 y_state3_action1 - y_state4_action0 >= 0
 R9: y_state3_action1 - 1e+06 y_state4_action0 <= 0
 R10: 1e+06 y_state0_action0 - y_state5_action0 >= 0
 R11: y_state0_action0 - 1e+06 y_state5_action0 <= 0
 R12: 1e+06 y_state2_action0 - y_state6_action0 >= 0
 R13: y_state2_action0 - 1e+06 y_state6_action0 <= 0
 R14: 1e+06 y_state4_action0 - y_state7_action0 >= 0
 R15: y_state4_action0 - 1e+06 y_state7_action0 <= 0
 R16: 1e+06 y_state5_action0 - y_state8_action1 >= 0
 R17: y_state5_action0 - 1e+06 y_state8_action1 <= 0
 R18: 1e+06 y_state8_action1 - y_state9_action0 >= 0
 R19: y_state8_action1 - 1e+06 y_state9_action0 <= 0
 R20: 1e+06 y_state6_action0 - y_state10_action0 >= 0
 R21: y_state6_action0 - 1e+06 y_state10_action0 <= 0
 R22: 1e+06 y_state7_action0 - y_state11_action0 >= 0
 R23: y_state7_action0 - 1e+06 y_state11_action0 <= 0
 R24: - y_state12_action0 + 1e+06 y_state13_action2 >= 0
 R25: - 1e+06 y_state12_action0 + y_state13_action2 <= 0
 R26: 1e+06 y_state9_action0 - y_state13_action2 + 1e+06 y_state14_action2
   >= 0
 R27: y_state9_action0 - 1e+06 y_state13_action2 + y_state14_action2 <= 0
 R28: 1e+06 y_state10_action0 - y_state14_action2 - y_state14_action1 >= 0
 R29: y_state10_action0 - 1e+06 y_state14_action2 - 1e+06 y_state14_action1
   <= 0
 R30: 1e+06 y_state14_action1 - y_state15_action0 >= 0
 R31: y_state14_action1 - 1e+06 y_state15_action0 <= 0
 R32: 1e+06 y_state11_action0 - y_state16_action0 >= 0
 R33: y_state11_action0 - 1e+06 y_state16_action0 <= 0
 R34: 1e+06 y_state12_action0 + 999999 y_state17_action3
   + 1e+06 y_state18_action2 >= 0
 R35: y_state12_action0 - 999999 y_state17_action3 + y_state18_action2
   <= 0
 R36: - y_state18_action2 + 1e+06 y_state19_action2 >= 0
 R37: - 1e+06 y_state18_action2 + y_state19_action2 <= 0
 R38: - y_state19_action2 + 1e+06 y_state20_action2 >= 0
 R39: - 1e+06 y_state19_action2 + y_state20_action2 <= 0
 R40: 1e+06 y_state15_action0 - y_state20_action2 + 1e+06 y_state21_action2
   >= 0
 R41: y_state15_action0 - 1e+06 y_state20_action2 + y_state21_action2 <= 0
 R42: 1e+06 y_state16_action0 - y_state21_action2 >= 0
 R43: y_state16_action0 - 1e+06 y_state21_action2 <= 0
 R44: x_reward0_state0_lower >= 12
 R45: x_reward0_state0_upper <= 12
 R46: x_reward0_state17_lower = 0
 R47: x_reward0_state17_upper = 0
 R48: x_reward1_state0_lower >= 0
 R49: x_reward1_state0_upper <= 0
 R50: x_reward1_state17_lower = 0
 R51: x_reward1_state17_upper = 0
 R52: x_reward2_state0_lower >= 1
 R53: x_reward2_state0_upper <= 1
 R54: x_reward2_state17_lower = 0
 R55: x_reward2_state17_upper = 0
 R56: 1e+06 y_state0_action0 + x_reward0_state0_lower
   - x_reward0_state5_lower <= 1.000001e+06
 R57: - 1e+06 y_state0_action0 + x_reward0_state0_upper
   - x_reward0_state5_upper >= -999999
 R58: 1e+06 y_state0_action1 + x_reward0_state0_lower
   - x_reward0_state1_lower <= 1.000001e+06
 R59: - 1e+06 y_state0_action1 + x_reward0_state0_upper
   - x_reward0_state1_upper >= -999999
 R60: 1e+06 y_state1_action1 + x_reward0_state1_lower
   - x_reward0_state2_lower <= 1.000001e+06
 R61: - 1e+06 y_state1_action1 + x_reward0_state1_upper
   - x_reward0_state2_upper >= -999999
 R62: 1e+06 y_state2_action0 + x_reward0_state2_lower
   - x_reward0_state6_lower <= 1.000001e+06
 R63: - 1e+06 y_state2_action0 + x_reward0_state2_upper
   - x_reward0_state6_upper >= -999999
 R64: 1e+06 y_state2_action1 + x_reward0_state2_lower
   - x_reward0_state3_lower <= 1.000001e+06
 R65: - 1e+06 y_state2_action1 + x_reward0_state2_upper
   - x_reward0_state3_upper >= -999999
 R66: 1e+06 y_state3_action1 + x_reward0_state3_lower
   - x_reward0_state4_lower <= 1.000001e+06
 R67: - 1e+06 y_state3_action1 + x_reward0_state3_upper
   - x_reward0_state4_upper >= -999999
 R68: 1e+06 y_state4_action0 + x_reward0_state4_lower
   - x_reward0_state7_lower <= 1.000001e+06
 R69: - 1e+06 y_state4_action0 + x_reward0_state4_upper
   - x_reward0_state7_upper >= -999999
 R70: 1e+06 y_state5_action0 + x_reward0_state5_lower
   - x_reward0_state8_lower <= 1.000001e+06
 R71: - 1e+06 y_state5_action0 + x_reward0_state5_upper
   - x_reward0_state8_upper >= -999999
 R72: 1e+06 y_state6_action0 + x_reward0_state6_lower
   - x_reward0_state10_lower <= 1.000001e+06
 R73: - 1e+06 y_state6_action0 + x_reward0_state6_upper
   - x_reward0_state10_upper >= -999999
 R74: 1e+06 y_state7_action0 + x_reward0_state7_lower
   - x_reward0_state11_lower <= 1.000001e+06
 R75: - 1e+06 y_state7_action0 + x_reward0_state7_upper
   - x_reward0_state11_upper >= -999999
 R76: 1e+06 y_state8_action1 + x_reward0_state8_lower
   - x_reward0_state9_lower <= 1.000001e+06
 R77: - 1e+06 y_state8_action1 + x_reward0_state8_upper
   - x_reward0_state9_upper >= -999999
 R78: 1e+06 y_state9_action0 + x_reward0_state9_lower
   - x_reward0_state13_lower <= 1.000001e+06
 R79: - 1e+06 y_state9_action0 + x_reward0_state9_upper
   - x_reward0_state13_upper >= -999999
 R80: 1e+06 y_state10_action0 + x_reward0_state10_lower
   - x_reward0_state14_lower <= 1.000001e+06
 R81: - 1e+06 y_state10_action0 + x_reward0_state10_upper
   - x_reward0_state14_upper >= -999999
 R82: 1e+06 y_state11_action0 + x_reward0_state11_lower
   - x_reward0_state16_lower <= 1.000001e+06
 R83: - 1e+06 y_state11_action0 + x_reward0_state11_upper
   - x_reward0_state16_upper >= -999999
 R84: 1e+06 y_state12_action0 + x_reward0_state12_lower
   - x_reward0_state17_lower <= 1.000001e+06
 R85: - 1e+06 y_state12_action0 + x_reward0_state12_upper
   - x_reward0_state17_upper >= -999999
 R86: 1e+06 y_state13_action2 - x_reward0_state12_lower
   + x_reward0_state13_lower <= 1.000001e+06
 R87: - 1e+06 y_state13_action2 - x_reward0_state12_upper
   + x_reward0_state13_upper >= -999999
 R88: 1e+06 y_state14_action2 - x_reward0_state13_lower
   + x_reward0_state14_lower <= 1.000001e+06
 R89: - 1e+06 y_state14_action2 - x_reward0_state13_upper
   + x_reward0_state14_upper >= -999999
 R90: 1e+06 y_state14_action1 + x_reward0_state14_lower
   - x_reward0_state15_lower <= 1.000001e+06
 R91: - 1e+06 y_state14_action1 + x_reward0_state14_upper
   - x_reward0_state15_upper >= -999999
 R92: 1e+06 y_state15_action0 + x_reward0_state15_lower
   - x_reward0_state20_lower <= 1.000001e+06
 R93: - 1e+06 y_state15_action0 + x_reward0_state15_upper
   - x_reward0_state20_upper >= -999999
 R94: 1e+06 y_state16_action0 + x_reward0_state16_lower
   - x_reward0_state21_lower <= 1.000001e+06
 R95: - 1e+06 y_state16_action0 + x_reward0_state16_upper
   - x_reward0_state21_upper >= -999999
 R96: 1e+06 y_state17_action3 <= 1e+06
 R97: - 1e+06 y_state17_action3 >= -1e+06
 R98: 1e+06 y_state18_action2 - x_reward0_state17_lower
   + x_reward0_state18_lower <= 1.000001e+06
 R99: - 1e+06 y_state18_action2 - x_reward0_state17_upper
   + x_reward0_state18_upper >= -999999
 R100: 1e+06 y_state19_action2 - x_reward0_state18_lower
   + x_reward0_state19_lower <= 1.000001e+06
 R101: - 1e+06 y_state19_action2 - x_reward0_state18_upper
   + x_reward0_state19_upper >= -999999
 R102: 1e+06 y_state20_action2 - x_reward0_state19_lower
   + x_reward0_state20_lower <= 1.000001e+06
 R103: - 1e+06 y_state20_action2 - x_reward0_state19_upper
   + x_reward0_state20_upper >= -999999
 R104: 1e+06 y_state21_action2 - x_reward0_state20_lower
   + x_reward0_state21_lower <= 1.000001e+06
 R105: - 1e+06 y_state21_action2 - x_reward0_state20_upper
   + x_reward0_state21_upper >= -999999
 R106: 1e+06 y_state0_action0 + x_reward1_state0_lower
   - x_reward1_state5_lower <= 1e+06
 R107: - 1e+06 y_state0_action0 + x_reward1_state0_upper
   - x_reward1_state5_upper >= -1e+06
 R108: 1e+06 y_state0_action1 + x_reward1_state0_lower
   - x_reward1_state1_lower <= 1e+06
 R109: - 1e+06 y_state0_action1 + x_reward1_state0_upper
   - x_reward1_state1_upper >= -1e+06
 R110: 1e+06 y_state1_action1 + x_reward1_state1_lower
   - x_reward1_state2_lower <= 1e+06
 R111: - 1e+06 y_state1_action1 + x_reward1_state1_upper
   - x_reward1_state2_upper >= -1e+06
 R112: 1e+06 y_state2_action0 + x_reward1_state2_lower
   - x_reward1_state6_lower <= 1e+06
 R113: - 1e+06 y_state2_action0 + x_reward1_state2_upper
   - x_reward1_state6_upper >= -1e+06
 R114: 1e+06 y_state2_action1 + x_reward1_state2_lower
   - x_reward1_state3_lower <= 1e+06
 R115: - 1e+06 y_state2_action1 + x_reward1_state2_upper
   - x_reward1_state3_upper >= -1e+06
 R116: 1e+06 y_state3_action1 + x_reward1_state3_lower
   - x_reward1_state4_lower <= 1e+06
 R117: - 1e+06 y_state3_action1 + x_reward1_state3_upper
   - x_reward1_state4_upper >= -1e+06
 R118: 1e+06 y_state4_action0 + x_reward1_state4_lower
   - x_reward1_state7_lower <= 1e+06
 R119: - 1e+06 y_state4_action0 + x_reward1_state4_upper
   - x_reward1_state7_upper >= -1e+06
 R120: 1e+06 y_state5_action0 + x_reward1_state5_lower
   - x_reward1_state8_lower <= 1e+06
 R121: - 1e+06 y_state5_action0 + x_reward1_state5_upper
   - x_reward1_state8_upper >= -1e+06
 R122: 1e+06 y_state6_action0 + x_reward1_state6_lower
   - x_reward1_state10_lower <= 1e+06
 R123: - 1e+06 y_state6_action0 + x_reward1_state6_upper
   - x_reward1_state10_upper >= -1e+06
 R124: 1e+06 y_state7_action0 + x_reward1_state7_lower
   - x_reward1_state11_lower <= 1e+06
 R125: - 1e+06 y_state7_action0 + x_reward1_state7_upper
   - x_reward1_state11_upper >= -1e+06
 R126: 1e+06 y_state8_action1 + x_reward1_state8_lower
   - x_reward1_state9_lower <= 1.000001e+06
 R127: - 1e+06 y_state8_action1 + x_reward1_state8_upper
   - x_reward1_state9_upper >= -999999
 R128: 1e+06 y_state9_action0 + x_reward1_state9_lower
   - x_reward1_state13_lower <= 1.0000015e+06
 R129: - 1e+06 y_state9_action0 + x_reward1_state9_upper
   - x_reward1_state13_upper >= -999998.5
 R130: 1e+06 y_state10_action0 + x_reward1_state10_lower
   - x_reward1_state14_lower <= 1e+06
 R131: - 1e+06 y_state10_action0 + x_reward1_state10_upper
   - x_reward1_state14_upper >= -1e+06
 R132: 1e+06 y_state11_action0 + x_reward1_state11_lower
   - x_reward1_state16_lower <= 1e+06
 R133: - 1e+06 y_state11_action0 + x_reward1_state11_upper
   - x_reward1_state16_upper >= -1e+06
 R134: 1e+06 y_state12_action0 + x_reward1_state12_lower
   - x_reward1_state17_lower <= 1.000001e+06
 R135: - 1e+06 y_state12_action0 + x_reward1_state12_upper
   - x_reward1_state17_upper >= -999999
 R136: 1e+06 y_state13_action2 - x_reward1_state12_lower
   + x_reward1_state13_lower <= 1.0000015e+06
 R137: - 1e+06 y_state13_action2 - x_reward1_state12_upper
   + x_reward1_state13_upper >= -999998.5
 R138: 1e+06 y_state14_action2 - x_reward1_state13_lower
   + x_reward1_state14_lower <= 1e+06
 R139: - 1e+06 y_state14_action2 - x_reward1_state13_upper
   + x_reward1_state14_upper >= -1e+06
 R140: 1e+06 y_state14_action1 + x_reward1_state14_lower
   - x_reward1_state15_lower <= 1e+06
 R141: - 1e+06 y_state14_action1 + x_reward1_state14_upper
   - x_reward1_state15_upper >= -1e+06
 R142: 1e+06 y_state15_action0 + x_reward1_state15_lower
   - x_reward1_state20_lower <= 1.000001e+06
 R143: - 1e+06 y_state15_action0 + x_reward1_state15_upper
   - x_reward1_state20_upper >= -999999
 R144: 1e+06 y_state16_action0 + x_reward1_state16_lower
   - x_reward1_state21_lower <= 1e+06
 R145: - 1e+06 y_state16_action0 + x_reward1_state16_upper
   - x_reward1_state21_upper >= -1e+06
 R146: 1e+06 y_state17_action3 <= 1e+06
 R147: - 1e+06 y_state17_action3 >= -1e+06
 R148: 1e+06 y_state18_action2 - x_reward1_state17_lower
   + x_reward1_state18_lower <= 1e+06
 R149: - 1e+06 y_state18_action2 - x_reward1_state17_upper
   + x_reward1_state18_upper >= -1e+06
 R150: 1e+06 y_state19_action2 - x_reward1_state18_lower
   + x_reward1_state19_lower <= 1e+06
 R151: - 1e+06 y_state19_action2 - x_reward1_state18_upper
   + x_reward1_state19_upper >= -1e+06
 R152: 1e+06 y_state20_action2 - x_reward1_state19_lower
   + x_reward1_state20_lower <= 1e+06
 R153: - 1e+06 y_state20_action2 - x_reward1_state19_upper
   + x_reward1_state20_upper >= -1e+06
 R154: 1e+06 y_state21_action2 - x_reward1_state20_lower
   + x_reward1_state21_lower <= 1e+06
 R155: - 1e+06 y_state21_action2 - x_reward1_state20_upper
   + x_reward1_state21_upper >= -1e+06
 R156: 1e+06 y_state0_action0 + x_reward2_state0_lower
   - x_reward2_state5_lower <= 1e+06
 R157: - 1e+06 y_state0_action0 + x_reward2_state0_upper
   - x_reward2_state5_upper >= -1e+06
 R158: 1e+06 y_state0_action1 + x_reward2_state0_lower
   - x_reward2_state1_lower <= 1e+06
 R159: - 1e+06 y_state0_action1 + x_reward2_state0_upper
   - x_reward2_state1_upper >= -1e+06
 R160: 1e+06 y_state1_action1 + x_reward2_state1_lower
   - x_reward2_state2_lower <= 1e+06
 R161: - 1e+06 y_state1_action1 + x_reward2_state1_upper
   - x_reward2_state2_upper >= -1e+06
 R162: 1e+06 y_state2_action0 + x_reward2_state2_lower
   - x_reward2_state6_lower <= 1e+06
 R163: - 1e+06 y_state2_action0 + x_reward2_state2_upper
   - x_reward2_state6_upper >= -1e+06
 R164: 1e+06 y_state2_action1 + x_reward2_state2_lower
   - x_reward2_state3_lower <= 1e+06
 R165: - 1e+06 y_state2_action1 + x_reward2_state2_upper
   - x_reward2_state3_upper >= -1e+06
 R166: 1e+06 y_state3_action1 + x_reward2_state3_lower
   - x_reward2_state4_lower <= 1e+06
 R167: - 1e+06 y_state3_action1 + x_reward2_state3_upper
   - x_reward2_state4_upper >= -1e+06
 R168: 1e+06 y_state4_action0 + x_reward2_state4_lower
   - x_reward2_state7_lower <= 1e+06
 R169: - 1e+06 y_state4_action0 + x_reward2_state4_upper
   - x_reward2_state7_upper >= -1e+06
 R170: 1e+06 y_state5_action0 + x_reward2_state5_lower
   - x_reward2_state8_lower <= 1.000001e+06
 R171: - 1e+06 y_state5_action0 + x_reward2_state5_upper
   - x_reward2_state8_upper >= -999999
 R172: 1e+06 y_state6_action0 + x_reward2_state6_lower
   - x_reward2_state10_lower <= 1.000001e+06
 R173: - 1e+06 y_state6_action0 + x_reward2_state6_upper
   - x_reward2_state10_upper >= -999999
 R174: 1e+06 y_state7_action0 + x_reward2_state7_lower
   - x_reward2_state11_lower <= 1e+06
 R175: - 1e+06 y_state7_action0 + x_reward2_state7_upper
   - x_reward2_state11_upper >= -1e+06
 R176: 1e+06 y_state8_action1 + x_reward2_state8_lower
   - x_reward2_state9_lower <= 1.000001e+06
 R177: - 1e+06 y_state8_action1 + x_reward2_state8_upper
   - x_reward2_state9_upper >= -999999
 R178: 1e+06 y_state9_action0 + x_reward2_state9_lower
   - x_reward2_state13_lower <= 1.000001e+06
 R179: - 1e+06 y_state9_action0 + x_reward2_state9_upper
   - x_reward2_state13_upper >= -999999
 R180: 1e+06 y_state10_action0 + x_reward2_state10_lower
   - x_reward2_state14_lower <= 1.000001e+06
 R181: - 1e+06 y_state10_action0 + x_reward2_state10_upper
   - x_reward2_state14_upper >= -999999
 R182: 1e+06 y_state11_action0 + x_reward2_state11_lower
   - x_reward2_state16_lower <= 1e+06
 R183: - 1e+06 y_state11_action0 + x_reward2_state11_upper
   - x_reward2_state16_upper >= -1e+06
 R184: 1e+06 y_state12_action0 + x_reward2_state12_lower
   - x_reward2_state17_lower <= 1.000001e+06
 R185: - 1e+06 y_state12_action0 + x_reward2_state12_upper
   - x_reward2_state17_upper >= -999999
 R186: 1e+06 y_state13_action2 - x_reward2_state12_lower
   + x_reward2_state13_lower <= 1.000001e+06
 R187: - 1e+06 y_state13_action2 - x_reward2_state12_upper
   + x_reward2_state13_upper >= -999999
 R188: 1e+06 y_state14_action2 - x_reward2_state13_lower
   + x_reward2_state14_lower <= 1e+06
 R189: - 1e+06 y_state14_action2 - x_reward2_state13_upper
   + x_reward2_state14_upper >= -1e+06
 R190: 1e+06 y_state14_action1 + x_reward2_state14_lower
   - x_reward2_state15_lower <= 1e+06
 R191: - 1e+06 y_state14_action1 + x_reward2_state14_upper
   - x_reward2_state15_upper >= -1e+06
 R192: 1e+06 y_state15_action0 + x_reward2_state15_lower
   - x_reward2_state20_lower <= 1.000001e+06
 R193: - 1e+06 y_state15_action0 + x_reward2_state15_upper
   - x_reward2_state20_upper >= -999999
 R194: 1e+06 y_state16_action0 + x_reward2_state16_lower
   - x_reward2_state21_lower <= 1e+06
 R195: - 1e+06 y_state16_action0 + x_reward2_state16_upper
   - x_reward2_state21_upper >= -1e+06
 R196: 1e+06 y_state17_action3 <= 1e+06
 R197: - 1e+06 y_state17_action3 >= -1e+06
 R198: 1e+06 y_state18_action2 - x_reward2_state17_lower
   + x_reward2_state18_lower <= 1e+06
 R199: - 1e+06 y_state18_action2 - x_reward2_state17_upper
   + x_reward2_state18_upper >= -1e+06
 R200: 1e+06 y_state19_action2 - x_reward2_state18_lower
   + x_reward2_state19_lower <= 1e+06
 R201: - 1e+06 y_state19_action2 - x_reward2_state18_upper
   + x_reward2_state19_upper >= -1e+06
 R202: 1e+06 y_state20_action2 - x_reward2_state19_lower
   + x_reward2_state20_lower <= 1e+06
 R203: - 1e+06 y_state20_action2 - x_reward2_state19_upper
   + x_reward2_state20_upper >= -1e+06
 R204: 1e+06 y_state21_action2 - x_reward2_state20_lower
   + x_reward2_state21_lower <= 1.000001e+06
 R205: - 1e+06 y_state21_action2 - x_reward2_state20_upper
   + x_reward2_state21_upper >= -999999
Bounds
 Constant = 1
Binaries
 y_state0_action0 y_state0_action1 y_state1_action1 y_state2_action0
 y_state2_action1 y_state3_action1 y_state4_action0 y_state5_action0
 y_state6_action0 y_state7_action0 y_state8_action1 y_state9_action0
 y_state10_action0 y_state11_action0 y_state12_action0 y_state13_action2
 y_state14_action2 y_state14_action1 y_state15_action0 y_state16_action0
 y_state17_action3 y_state18_action2 y_state19_action2 y_state20_action2
 y_state21_action2
End
